p cnf 7230 17
-2128 -2846 3427 0
-2134 -2852 -3432 0
-2132 -2850 -3430 0
-2130 -2848 -3428 0
2134 -3433 0
2132 -3431 0
2130 -3429 0
3432 3433 0
3430 3431 0
3428 3429 0
2852 -3433 0
2850 -3431 0
2848 -3429 0
-3426 -3427 0
2950 -3435 0
2854 -3435 0
3426 3427 0
